data;

set A := 566704382 758685871 354376773 210708780 800547278 554746642 291209688 894757202 732308775 976782202 28175105 281293961 324817746 486092513 653672687 661479258 460687351 509410162 352836694 820513955 498201699 951296205 51795881 163024339 537867203 313292866 815785313 301475627 401194855 840438033 773878324 860264958 803583232 311691440 554559326 850032881 883936993 603206404 824509147 539780667 741065792 74738342 120988074 643212773 28984694 164248351 319920139 492971531 844360251 346799915 699220929 542240537 587424746 713272570 108613201 322567695 264532419 687391338 621088065 342045885 291902755 635712334 652832857 645750278 299102669 577348009 84507620 377842209 541038116 452836851 754689264 546732243 666455406 695394642 868777353 900854197;
param T := 19000000000;

end;
